4
13
3
11
16
18
1
19
3
14
15
14
19
2
3
9
5
2
3
10
13
16
20
3
20
13
19
9
13
17
14
15
19
10
4
11
1
17
5
8
10
11
10
1
2
6
7
13
10
13
12
2
8
9
9
3
5
11
2
7
1
13
13
1
17
2
16
15
16
11
6
11
13
17
2
9
3
13
12
15
6
15
4
7
6
7
15
7
9
13
8
12
16
15
18
15
2
5
6
3
